c A 3SAT instance whose satisfying assignment encodes the subset of [1, 2, 2] that add up to 1
c One possible solution is: [1, 0, 0]
p cnf 28 118
4 0
-5 0
-6 0
7 0
-8 0
9 0
17 18 19 20 0
-1 -2 0
-1 -3 0
-1 -4 0
-2 -3 0
-2 -4 0
-3 -4 0
-5 -6 0
-10 1 4 0
-10 -1 4 0
-10 1 -4 0
10 -1 -4 0
-11 1 5 0
-11 -1 5 0
-11 1 -5 0
11 -1 -5 0
-12 2 6 0
-12 -2 6 0
-12 2 -6 0
12 -2 -6 0
-13 2 7 0
-2 -18 0
-3 -7 0
-3 -11 0
-3 -15 0
-3 -19 0
-4 -8 0
-4 -12 0
-4 -16 0
-4 -20 0
-5 -9 0
-13 -2 7 0
-13 2 -7 0
13 -2 -7 0
-14 3 8 0
-14 -3 8 0
-14 3 -8 0
14 -3 -8 0
-15 3 9 0
-15 -3 9 0
-15 3 -9 0
15 -3 -9 0
-16 10 0
16 -10 0
-17 11 0
17 -11 0
-12 -16 0
-12 -20 0
-13 -17 0
-14 -18 0
-15 -19 0
-18 16 12 0
18 -16 12 0
18 16 -12 0
-18 -16 -12 0
-21 16 12 0
-21 -16 12 0
-21 16 -12 0
21 -16 -12 0
-19 21 17 13 0
19 -21 17 13 0
19 21 -17 13 0
-19 -21 -17 13 0
19 21 17 -13 0
-19 -21 17 -13 0
-19 21 -17 -13 0
19 -21 -17 -13 0
-22 17 13 21 0
-22 -17 13 21 0
-22 17 -13 21 0
22 -17 -13 21 0
-22 17 13 -21 0
22 -17 13 -21 0
22 17 -13 -21 0
22 -17 -13 -21 0
-20 22 0
20 -22 0
-23 18 14 0
23 -18 14 0
23 18 -14 0
-23 -18 -14 0
-26 18 14 0
-26 -18 14 0
-26 18 -14 0
26 -18 -14 0
-24 26 19 15 0
24 -26 19 15 0
24 26 -19 15 0
-24 -26 -19 15 0
24 26 19 -15 0
-24 -26 19 -15 0
-24 26 -19 -15 0
24 -26 -19 -15 0
-27 19 15 26 0
-27 -19 15 26 0
-27 19 -15 26 0
27 -19 -15 26 0
-27 19 15 -26 0
27 -19 15 -26 0
27 19 -15 -26 0
27 -19 -15 -26 0
-25 27 20 0
25 -27 20 0
25 27 -20 0
-25 -27 -20 0
-28 27 20 0
-28 -27 20 0
-28 27 -20 0
28 -27 -20 0
23 0
-24 0
-25 0
